
Gurobi 11.0.0 (win64, C++) logging started Mon Jul 28 18:10:14 2025

Set parameter TokenServer to value "141.76.38.119"
### START HEURISTIC APPROACH APPROACH ###
ProblemVariant: 1
### START PREPROCESSING ###
## Start start solution procedure ##
Not enough vehicles for start solution, copying existing vehicle(s)...
Copied 1 vehicle(s). Total vehicles now: 7
Start solution with 7 Vehicles and total costs 900.837 in 4.06133 s.
### END PREPROCESSING ###
Route 0 0-10-8-0 : weight util 0.944444 | volume util 0.346422 | infeasible with packing heuristic | feasible with CP model
Route 1 0-21-5-4-7-0 : weight util 0.294444 | volume util 0.568311 | infeasible with packing heuristic | feasible with CP model
Route 2 0-18-0 : weight util 0.026667 | volume util 0.258400 | infeasible with packing heuristic | feasible with CP model
Route 3 0-6-1-3-16-15-0 : weight util 0.135556 | volume util 0.470844 | infeasible with packing heuristic | feasible with CP model
Route 4 0-19-20-22-17-14-2-0 : weight util 0.446444 | volume util 0.755178 | infeasible with packing heuristic | feasible with CP model
Route 5 0-12-11-13-9-0 : weight util 0.416667 | volume util 0.430711 | infeasible with packing heuristic | feasible with CP model
